(set-logic HORN)
(set-info :source |
  Benchmark: test_safe_2019/mochi/enc-zip4.ml
  Generated by MoCHi
|)
(set-info :status unknown)
(declare-fun |fail_23[45:0]| ( Int) Bool)
(declare-fun |zip[32:2][40:0]| ( Int  Int  Int) Bool)
(declare-fun |zip[32:1]| ( Int  Int) Bool)
(assert (not (exists ((x0 Int)) (|fail_23[45:0]| x0))))
(assert (forall ((x0 Int)(x2 Int)(x1 Int)) (=> (and (|zip[32:2][40:0]| x1 x1 x2) (or (<= (+ 1 x2) x1) (>= x2 (+ 1 x1)))) (|fail_23[45:0]| x0))))
(assert (forall ((x1 Int)(x2 Int)(x3 Int)) (=> (and (|zip[32:1]| x1 x2) (and (= x2 0) (and (= x1 0) (= x3 0)))) (|zip[32:2][40:0]| x1 x2 x3))))
(assert (forall ((x1 Int)(x0 Int)) (=> (= x1 x0) (|zip[32:1]| x1 x0))))
(check-sat)
(get-model)
(exit)
